WARNING: for repeatability, setting FPU to use double precision
 -----------------------------------------------------------------------------------------------------------------------
|                                 manysat2.0    4 thread(s) on 8 core(s)                                                |
 -----------------------------------------------------------------------------------------------------------------------
 ===============================================[ Problem Statistics ]==================================================
|                                                                                                                       |
|  Number of cores:                 4                                                                                   |
|  Number of variables:         45435                                                                                   |
|  Number of clauses:          610071                                                                                   |
|  Parse time:                   0.31 s                                                                                 |
|                                                                                                                       |
 ==============================================[ Search Statistics ]====================================================
|   Thread  | Conflicts |          ORIGINAL         |          LEARNT          |  exported  / imported      |  Progress |
|    (id)   |           |    Vars  Clauses Literals |    Limit  Clauses Lit/Cl |  (clauses by restart)      |           |
 =======================================================================================================================
|         1 |       100 |   45225   608738  1749206 |   223692      159     29 |         211  -          59 |  0.462 %  |
|         2 |       100 |   45225   608738  1749206 |   223692      205     17 |         422  -         105 |  0.462 %  |
|         3 |       100 |   45110   608738  1749206 |   223692      218     14 |         211  -         119 |  0.715 %  |
|         1 |       250 |   45111   608738  1749206 |   246061      375     36 |         422  -         125 |  0.713 %  |
|         0 |       100 |   45111   608738  1749206 |   223203      236     11 |         211  -         137 |  0.713 %  |
|         3 |       250 |   45110   608738  1749206 |   246061      406     39 |         211  -         157 |  0.716 %  |
|         1 |       475 |   45110   608738  1749206 |   270668      670     34 |         422  -         195 |  0.715 %  |
|         0 |       250 |   45110   608738  1749206 |   245524      500     24 |         211  -         251 |  0.715 %  |
|         2 |       250 |   45110   608738  1749206 |   246061      508     20 |         537  -         258 |  0.715 %  |
|         1 |       812 |   45110   608738  1749206 |   297734     1090     44 |         537  -         278 |  0.715 %  |
|         0 |       475 |   44981   608738  1749206 |   270076      809     34 |         211  -         336 |  0.999 %  |
|         3 |       475 |   45110   608738  1749206 |   270668      833     30 |         326  -         359 |  0.715 %  |
|         2 |       475 |   44981   608738  1749206 |   270668      833     24 |         537  -         358 |  0.999 %  |
|         0 |       812 |   44981   605093  1739921 |   297084     1190     49 |        1121  -         398 |  0.999 %  |
|         3 |       812 |   44981   605093  1739921 |   297734     1268     45 |        1236  -         474 |  0.999 %  |
|         2 |       812 |   44979   605093  1739921 |   297734     1274     34 |         992  -         479 |  1.004 %  |
|         0 |      1318 |   44979   605093  1739921 |   326792     1858     61 |        1122  -         560 |  1.004 %  |
|         1 |      1318 |   44978   603633  1737001 |   327508     1868     44 |         992  -         571 |  1.006 %  |
|         3 |      1318 |   44979   605093  1739921 |   327508     1917     59 |        1237  -         617 |  1.004 %  |
|         2 |      1318 |   44979   605093  1739921 |   327508     1928     49 |         993  -         626 |  1.004 %  |
|         0 |      2077 |   44978   605093  1739921 |   359472     2731     66 |        1122  -         674 |  1.006 %  |
|         2 |      2077 |   44978   605093  1739921 |   360259     2833     62 |        1374  -         772 |  1.006 %  |
|         3 |      2077 |   44977   603328  1736389 |   360259     2839     64 |        1371  -         785 |  1.008 %  |
|         1 |      2077 |   44974   603242  1736217 |   360259     2865     50 |        1371  -         817 |  1.015 %  |
|         0 |      3216 |   44976   603400  1736533 |   395419     4124     70 |        1374  -         933 |  1.010 %  |
|         2 |      3216 |   44975   603242  1736217 |   396285     4222     65 |        1381  -        1029 |  1.013 %  |
|         3 |      3216 |   44975   603328  1736389 |   396285     4316     76 |        1378  -        1123 |  1.012 %  |
|         1 |      3216 |   44974   603242  1736217 |   396285     4291     52 |        1375  -        1103 |  1.015 %  |
|         3 |      4924 |   44972   603076  1735883 |   435913     6188     87 |        1378  -        1290 |  1.019 %  |
|         0 |      4924 |   44973   603076  1735883 |   434961     6158     81 |        1379  -        1262 |  1.017 %  |
|         2 |      4924 |   44973   603242  1736217 |   435913     6278     66 |        1386  -        1377 |  1.017 %  |
|         0 |      7486 |   44972   603059  1735849 |   478457     9046     84 |        1379  -        1588 |  1.019 %  |
|         1 |      4924 |   44973   603076  1735883 |   435913     6469     53 |        1380  -        1573 |  1.017 %  |
|         3 |      7486 |   44972   603076  1735883 |   479505     9131     87 |        1378  -        1671 |  1.019 %  |
|         2 |      7486 |   44972   603059  1735849 |   479505     9141     81 |        1386  -        1678 |  1.019 %  |
|         1 |      7486 |   44972   603059  1735849 |   479505     9174     66 |        1380  -        1716 |  1.019 %  |
|         3 |     11330 |   44972   603059  1735849 |   527455    13463     94 |        1390  -        2159 |  1.019 %  |
|         0 |     11330 |   44972   603059  1735849 |   526303    13429     96 |        1391  -        2126 |  1.019 %  |
|         2 |     11330 |   44631   598394  1723798 |   527455    12753     95 |        1558  -        2083 |  1.770 %  |
|         1 |     11330 |   44630   596898  1720806 |   527455    13191     82 |        1731  -        2168 |  1.772 %  |
|         0 |     17096 |   44628   596873  1720756 |   578933    19481    103 |        1902  -        2655 |  1.776 %  |
|         3 |     17096 |   44631   598394  1723798 |   580201    19665    114 |        2244  -        2820 |  1.770 %  |
|         2 |     17096 |   44629   598394  1723798 |   580201    19163     97 |        1901  -        2728 |  1.774 %  |
|         1 |     17096 |   44629   596898  1720806 |   580201    19449     98 |        2074  -        2660 |  1.774 %  |
|         3 |     25745 |   44626   596701  1720409 |   638221    28780    113 |        2247  -        3293 |  1.781 %  |
|         1 |     25745 |   44628   596873  1720756 |   638221    28719    102 |        2422  -        3281 |  1.776 %  |
|         0 |     25745 |   44627   596704  1720418 |   636826    28931    124 |        2247  -        3459 |  1.778 %  |
|         2 |     25745 |   44628   596873  1720756 |   638221    28496    104 |        2249  -        3416 |  1.776 %  |
|         3 |     38719 |   44626   596701  1720409 |   702043    42800    115 |        2632  -        4339 |  1.781 %  |
|         1 |     38719 |   44426   587226  1698947 |   702043    31906    105 |        2630  -        4131 |  2.221 %  |
|         0 |     38719 |   44424   587226  1698947 |   700509    33495    123 |        2429  -        4420 |  2.226 %  |
|         2 |     38719 |   44624   595264  1717535 |   702043    42714    116 |        2630  -        4666 |  1.786 %  |
|         1 |     58180 |   43767   566721  1646619 |   772247    38280    104 |        3494  -        5692 |  3.672 %  |
|         0 |     58180 |   44422   587185  1698862 |   770560    54793    118 |        4152  -        6255 |  2.230 %  |
|         3 |     58180 |   43765   566707  1646591 |   772247    43074    104 |        3496  -        6602 |  3.676 %  |
|         2 |     58180 |   44423   587188  1698871 |   772247    59800    123 |        4355  -        7023 |  2.228 %  |
|         1 |     87372 |   43763   565928  1645028 |   849472    69403    109 |        4837  -        7788 |  3.680 %  |
|         2 |     87372 |   26642   555385  1618513 |   849472    70436    122 |       16158  -        9101 | 41.363 %  |
 =======================================================================================================================
 -----------------------------------------------------------------------------------------------------------------------
| ManySAT 2.2 - all threads statistics           DETERMINISTIC MODE ? N              initial limit export clauses :  10 |
|-----------------------------------------------------------------------------------------------------------------------|
|  Thread  | winner  |   #restarts   |   decisions   |  #conflicts   |   % shared cls  |  #extra units | #extra clauses |         
|----------|---------|---------------|---------------|---------------|-----------------|---------------|----------------|
|        0 |         |            15 |        187096 |         86443 |            55 % |         38790 |           9248 |
|        1 |         |            16 |        192928 |         91448 |            39 % |         27441 |           8727 |
|        2 |         |            16 |        175681 |         87730 |            36 % |         22814 |           9363 |
|        3 |       x |            15 |        181853 |         87194 |            47 % |         32126 |           8870 |
|----------------------------------------------------|---------------|-----------------|---------------|----------------|
|                                                    |        352815 |            44 % |        121171 |          36208 |
 -----------------------------------------------------------------------------------------------------------------------
 DETERMINISTIC_MODE? : NO 
 CONTROL POLICY?	 : STATIC (fixed Limit Export Clauses)  
 LIMIT EXPORT CLAUSES (PAIRWISE) : [identity] x 10

  ----------------------------------------         
   winner:  more statistics           
  ----------------------------------------         
  restarts              : 15
  conflicts             : 87194          (1024 /sec)
  decisions             : 181853         (0.33 % random) (2136 /sec)
  propagations          : 105427848      (1238375 /sec)
  conflict literals     : 10128314       (42.02 % deleted)
  Memory used           : 322.00 MB
  CPU time              : 85.1341 s

UNSATISFIABLE
